c 9th DIMACS Implementation Challenge: Shortest Paths
c http://www.dis.uniroma1.it/~challenge9
c TIGER/Line graph USA-road-t.NY
c
p sp 35 61
c graph contains 25 nodes and 61 arcs
c
a 1 2 2008
a 2 1 2008
a 1 3 10
a 3 1 10
a 3 4 395
a 4 5 395
a 5 6 100
a 6 5 60
a 5 7 60
a 7 8 80
a 8 9 90
a 9 10 400
a 10 11 320
a 10 5 5
a 10 9 5
a 10 14 2000
a 11 12 1500
a 12 13 1035
a 12 10 15
a 13 14 10
a 14 15 100
a 14 13 50
a 14 12 50
a 14 10 50
a 15 16 55
a 15 13 10
a 16 17 6
a 16 4	1
a 16 12 1935
a 16 17 1935
a 17 18 1935
a 18 19 1935
a 19 20 1935
a 20 21 40
a 21 22 102
a 22 23 100
a 23 24 1935
a 24 25 1935
a 24 26 50
a 24 27 50
a 24 28 4
a 24 29 6
a 24 30 2
a 24 31 10
a 24 32 42
a 24 33 500
a 24 34 100
a 24 35 195
a 25 26 15
a 26 27 18
a 27 29 300
a 27 28 18
a 28 29 200
a 29 30 10
a 30 31 10
a 31 32 50
a 31 33 100
a 32 33 60
a 33 34 60
a 34 35 60
a 30 31 10
